7075
73,76,34,87,1,98,103,82,95,107,5,100,143,97,124,89,8,7,84,30,96,35,93,126,33,92,46,90,56,146,26,75,18,142,85,132,65,55,50,137,135,70,108,102,114,99,19,2,37,6,28,9,42,120,47,110,81,29,86,58,141,83,25,20,51,138,134,54,105,52,111,133,16,59,79,121,94,88,21,78,15,80,14,122,77,131,23,38,32,67,109,43,12,24,53,139,40,118,127,69,36,61,11,148,130,17,66,60,140,117,57,39,116,101,41,129,27,31,123,74,136,112,145,144,147,49,72,64,44,71,13,106,91,119,68,128,45,115,150,4,104,22,125,149,62,3,113,10,63,48,73
